(set-info :source |printed by MathSAT|)
(declare-fun _OK_ () Bool)
(declare-fun call__DRAGON_.ite6 () Int)
(declare-fun call__DRAGON_.ite28 () Int)
(declare-fun call__DRAGON_.ite48 () Int)
(declare-fun param_e06 () Bool)
(declare-fun call__DRAGON_.ite45 () Int)
(declare-fun call__DRAGON_.ite30 () Int)
(declare-fun call__DRAGON_.g05 () Bool)
(declare-fun dirty () Int)
(declare-fun param_e08 () Bool)
(declare-fun call_excludes12.excludes () Bool)
(declare-fun call__DRAGON_.ite46 () Int)
(declare-fun call__DRAGON_.ite23 () Int)
(declare-fun call__DRAGON_.ite59 () Int)
(declare-fun call__DRAGON_.ite42 () Int)
(declare-fun call__DRAGON_.ite12 () Int)
(declare-fun call__DRAGON_.shared () Int)
(declare-fun call__DRAGON_.flby3 () Int)
(declare-fun call__DRAGON_.ite61 () Int)
(declare-fun call__DRAGON_.erreur () Bool)
(declare-fun call__DRAGON_.ite16 () Int)
(declare-fun call__DRAGON_.ite50 () Int)
(declare-fun call__DRAGON_.ite4 () Int)
(declare-fun call__DRAGON_.ite20 () Int)
(declare-fun call__DRAGON_.flby6 () Int)
(declare-fun call__DRAGON_.ite41 () Int)
(declare-fun call__DRAGON_.ite37 () Int)
(declare-fun env () Bool)
(declare-fun call__DRAGON_.g04 () Bool)
(declare-fun call__DRAGON_.flby2 () Int)
(declare-fun shared_dirty () Int)
(declare-fun call__DRAGON_.ite40 () Int)
(declare-fun call_Sofar.Sofar () Bool)
(declare-fun param_e03 () Bool)
(declare-fun call__DRAGON_.ite22 () Int)
(declare-fun call__DRAGON_.ite26 () Int)
(declare-fun call__DRAGON_.ite2 () Int)
(declare-fun call__DRAGON_.ite38 () Int)
(declare-fun param_e07 () Bool)
(declare-fun param_init_invalid () Int)
(declare-fun call__DRAGON_.ite44 () Int)
(declare-fun flby () Bool)
(declare-fun call__DRAGON_.ite13 () Int)
(declare-fun call__DRAGON_.dirty () Int)
(declare-fun call__DRAGON_.ite17 () Int)
(declare-fun call__DRAGON_.ite10 () Int)
(declare-fun call_Sofar.flby () Bool)
(declare-fun call__DRAGON_.ite21 () Int)
(declare-fun call__DRAGON_.ite47 () Int)
(declare-fun call__DRAGON_.ite43 () Int)
(declare-fun call__DRAGON_.ite60 () Int)
(declare-fun call__DRAGON_.flby4 () Int)
(declare-fun param_e11 () Bool)
(declare-fun call__DRAGON_.ite19 () Int)
(declare-fun call__DRAGON_.ite32 () Int)
(declare-fun call__DRAGON_.ite29 () Int)
(declare-fun shared () Int)
(declare-fun param_e02 () Bool)
(declare-fun call__DRAGON_.ite52 () Int)
(declare-fun erreur () Bool)
(declare-fun call__DRAGON_.ite31 () Int)
(declare-fun call__DRAGON_.ite () Bool)
(declare-fun call__DRAGON_.invalid () Int)
(declare-fun call__DRAGON_.ite27 () Int)
(declare-fun param_e05 () Bool)
(declare-fun param_e10 () Bool)
(declare-fun call__DRAGON_.shared_dirty () Int)
(declare-fun call__DRAGON_.ite9 () Int)
(declare-fun param_e04 () Bool)
(declare-fun param_e01 () Bool)
(declare-fun call__DRAGON_.ite25 () Int)
(declare-fun call__DRAGON_.ite49 () Int)
(declare-fun call__DRAGON_.ite3 () Int)
(declare-fun call__DRAGON_.ite53 () Int)
(declare-fun call__DRAGON_.ite51 () Int)
(declare-fun call__DRAGON_.mem_init () Int)
(declare-fun call__DRAGON_.ite36 () Int)
(declare-fun call__DRAGON_.ite56 () Int)
(declare-fun call__DRAGON_.ite15 () Int)
(declare-fun call__DRAGON_.flby5 () Int)
(declare-fun call__DRAGON_.g06 () Bool)
(declare-fun call__DRAGON_.ite7 () Int)
(declare-fun call__DRAGON_.ite8 () Int)
(declare-fun call__DRAGON_.ite54 () Int)
(declare-fun call__DRAGON_.ite14 () Int)
(declare-fun call__DRAGON_.ite11 () Int)
(declare-fun call__DRAGON_.ite24 () Int)
(declare-fun call__DRAGON_.ite5 () Int)
(declare-fun call__DRAGON_.ite55 () Int)
(declare-fun call__DRAGON_.ite18 () Int)
(declare-fun call__DRAGON_.ite33 () Int)
(declare-fun call__DRAGON_.g08 () Bool)
(declare-fun call__DRAGON_.flby () Int)
(declare-fun call__DRAGON_.ite58 () Int)
(declare-fun call__DRAGON_.ite35 () Int)
(declare-fun invalid () Int)
(declare-fun call__DRAGON_.g02 () Bool)
(declare-fun call__DRAGON_.ite57 () Int)
(declare-fun param_e12 () Bool)
(declare-fun exclusive () Int)
(declare-fun call__DRAGON_.ite39 () Int)
(declare-fun call__DRAGON_.ite34 () Int)
(declare-fun param_e09 () Bool)
(declare-fun call__DRAGON_.exclusive () Int)
(define-fun .def_1773 () Bool (= call_Sofar.flby call_Sofar.Sofar))
(define-fun .def_1612 () Bool (not param_e03))
(define-fun .def_1572 () Bool (not param_e02))
(define-fun .def_1748 () Bool (and .def_1572 .def_1612))
(define-fun .def_1628 () Bool (not param_e04))
(define-fun .def_1749 () Bool (and .def_1628 .def_1748))
(define-fun .def_1422 () Bool (not param_e05))
(define-fun .def_1750 () Bool (and .def_1422 .def_1749))
(define-fun .def_1406 () Bool (not param_e06))
(define-fun .def_1751 () Bool (and .def_1406 .def_1750))
(define-fun .def_1442 () Bool (not param_e07))
(define-fun .def_1752 () Bool (and .def_1442 .def_1751))
(define-fun .def_1460 () Bool (not param_e08))
(define-fun .def_1753 () Bool (and .def_1460 .def_1752))
(define-fun .def_1300 () Bool (not param_e09))
(define-fun .def_1754 () Bool (and .def_1300 .def_1753))
(define-fun .def_1306 () Bool (not param_e10))
(define-fun .def_1755 () Bool (and .def_1306 .def_1754))
(define-fun .def_1315 () Bool (not param_e11))
(define-fun .def_1756 () Bool (and .def_1315 .def_1755))
(define-fun .def_1322 () Bool (not param_e12))
(define-fun .def_1757 () Bool (and .def_1322 .def_1756))
(define-fun .def_1553 () Bool (not param_e01))
(define-fun .def_1758 () Bool (or .def_1553 .def_1757))
(define-fun .def_1737 () Bool (and param_e01 .def_1572))
(define-fun .def_1738 () Bool (and .def_1612 .def_1737))
(define-fun .def_1739 () Bool (and .def_1628 .def_1738))
(define-fun .def_1740 () Bool (and .def_1422 .def_1739))
(define-fun .def_1741 () Bool (and .def_1406 .def_1740))
(define-fun .def_1742 () Bool (and .def_1442 .def_1741))
(define-fun .def_1743 () Bool (and .def_1460 .def_1742))
(define-fun .def_1744 () Bool (and .def_1300 .def_1743))
(define-fun .def_1745 () Bool (and .def_1306 .def_1744))
(define-fun .def_1746 () Bool (and .def_1315 .def_1745))
(define-fun .def_1747 () Bool (and .def_1322 .def_1746))
(define-fun .def_1759 () Bool (or .def_1747 .def_1758))
(define-fun .def_1726 () Bool (and .def_1553 param_e02))
(define-fun .def_1727 () Bool (and .def_1612 .def_1726))
(define-fun .def_1728 () Bool (and .def_1628 .def_1727))
(define-fun .def_1729 () Bool (and .def_1422 .def_1728))
(define-fun .def_1730 () Bool (and .def_1406 .def_1729))
(define-fun .def_1731 () Bool (and .def_1442 .def_1730))
(define-fun .def_1732 () Bool (and .def_1460 .def_1731))
(define-fun .def_1733 () Bool (and .def_1300 .def_1732))
(define-fun .def_1734 () Bool (and .def_1306 .def_1733))
(define-fun .def_1735 () Bool (and .def_1315 .def_1734))
(define-fun .def_1736 () Bool (and .def_1322 .def_1735))
(define-fun .def_1760 () Bool (or .def_1736 .def_1759))
(define-fun .def_1661 () Bool (and .def_1553 .def_1572))
(define-fun .def_1716 () Bool (and param_e03 .def_1661))
(define-fun .def_1717 () Bool (and .def_1628 .def_1716))
(define-fun .def_1718 () Bool (and .def_1422 .def_1717))
(define-fun .def_1719 () Bool (and .def_1406 .def_1718))
(define-fun .def_1720 () Bool (and .def_1442 .def_1719))
(define-fun .def_1721 () Bool (and .def_1460 .def_1720))
(define-fun .def_1722 () Bool (and .def_1300 .def_1721))
(define-fun .def_1723 () Bool (and .def_1306 .def_1722))
(define-fun .def_1724 () Bool (and .def_1315 .def_1723))
(define-fun .def_1725 () Bool (and .def_1322 .def_1724))
(define-fun .def_1761 () Bool (or .def_1725 .def_1760))
(define-fun .def_1662 () Bool (and .def_1612 .def_1661))
(define-fun .def_1707 () Bool (and param_e04 .def_1662))
(define-fun .def_1708 () Bool (and .def_1422 .def_1707))
(define-fun .def_1709 () Bool (and .def_1406 .def_1708))
(define-fun .def_1710 () Bool (and .def_1442 .def_1709))
(define-fun .def_1711 () Bool (and .def_1460 .def_1710))
(define-fun .def_1712 () Bool (and .def_1300 .def_1711))
(define-fun .def_1713 () Bool (and .def_1306 .def_1712))
(define-fun .def_1714 () Bool (and .def_1315 .def_1713))
(define-fun .def_1715 () Bool (and .def_1322 .def_1714))
(define-fun .def_1762 () Bool (or .def_1715 .def_1761))
(define-fun .def_1663 () Bool (and .def_1628 .def_1662))
(define-fun .def_1699 () Bool (and param_e05 .def_1663))
(define-fun .def_1700 () Bool (and .def_1406 .def_1699))
(define-fun .def_1701 () Bool (and .def_1442 .def_1700))
(define-fun .def_1702 () Bool (and .def_1460 .def_1701))
(define-fun .def_1703 () Bool (and .def_1300 .def_1702))
(define-fun .def_1704 () Bool (and .def_1306 .def_1703))
(define-fun .def_1705 () Bool (and .def_1315 .def_1704))
(define-fun .def_1706 () Bool (and .def_1322 .def_1705))
(define-fun .def_1763 () Bool (or .def_1706 .def_1762))
(define-fun .def_1664 () Bool (and .def_1422 .def_1663))
(define-fun .def_1692 () Bool (and param_e06 .def_1664))
(define-fun .def_1693 () Bool (and .def_1442 .def_1692))
(define-fun .def_1694 () Bool (and .def_1460 .def_1693))
(define-fun .def_1695 () Bool (and .def_1300 .def_1694))
(define-fun .def_1696 () Bool (and .def_1306 .def_1695))
(define-fun .def_1697 () Bool (and .def_1315 .def_1696))
(define-fun .def_1698 () Bool (and .def_1322 .def_1697))
(define-fun .def_1764 () Bool (or .def_1698 .def_1763))
(define-fun .def_1665 () Bool (and .def_1406 .def_1664))
(define-fun .def_1686 () Bool (and param_e07 .def_1665))
(define-fun .def_1687 () Bool (and .def_1460 .def_1686))
(define-fun .def_1688 () Bool (and .def_1300 .def_1687))
(define-fun .def_1689 () Bool (and .def_1306 .def_1688))
(define-fun .def_1690 () Bool (and .def_1315 .def_1689))
(define-fun .def_1691 () Bool (and .def_1322 .def_1690))
(define-fun .def_1765 () Bool (or .def_1691 .def_1764))
(define-fun .def_1666 () Bool (and .def_1442 .def_1665))
(define-fun .def_1681 () Bool (and param_e08 .def_1666))
(define-fun .def_1682 () Bool (and .def_1300 .def_1681))
(define-fun .def_1683 () Bool (and .def_1306 .def_1682))
(define-fun .def_1684 () Bool (and .def_1315 .def_1683))
(define-fun .def_1685 () Bool (and .def_1322 .def_1684))
(define-fun .def_1766 () Bool (or .def_1685 .def_1765))
(define-fun .def_1667 () Bool (and .def_1460 .def_1666))
(define-fun .def_1677 () Bool (and param_e09 .def_1667))
(define-fun .def_1678 () Bool (and .def_1306 .def_1677))
(define-fun .def_1679 () Bool (and .def_1315 .def_1678))
(define-fun .def_1680 () Bool (and .def_1322 .def_1679))
(define-fun .def_1767 () Bool (or .def_1680 .def_1766))
(define-fun .def_1668 () Bool (and .def_1300 .def_1667))
(define-fun .def_1674 () Bool (and param_e10 .def_1668))
(define-fun .def_1675 () Bool (and .def_1315 .def_1674))
(define-fun .def_1676 () Bool (and .def_1322 .def_1675))
(define-fun .def_1768 () Bool (or .def_1676 .def_1767))
(define-fun .def_1669 () Bool (and .def_1306 .def_1668))
(define-fun .def_1672 () Bool (and param_e11 .def_1669))
(define-fun .def_1673 () Bool (and .def_1322 .def_1672))
(define-fun .def_1769 () Bool (or .def_1673 .def_1768))
(define-fun .def_1670 () Bool (and .def_1315 .def_1669))
(define-fun .def_1671 () Bool (and param_e12 .def_1670))
(define-fun .def_1770 () Bool (or .def_1671 .def_1769))
(define-fun .def_1771 () Bool (= call_excludes12.excludes .def_1770))
(define-fun .def_1659 () Bool (= call__DRAGON_.mem_init call__DRAGON_.flby))
(define-fun .def_1657 () Bool (= call__DRAGON_.erreur call__DRAGON_.ite))
(define-fun .def_1655 () Bool (= call__DRAGON_.flby6 call__DRAGON_.invalid))
(define-fun .def_1653 () Bool (= call__DRAGON_.flby5 call__DRAGON_.dirty))
(define-fun .def_1651 () Bool (= call__DRAGON_.flby4 call__DRAGON_.shared_dirty))
(define-fun .def_1649 () Bool (= call__DRAGON_.flby3 call__DRAGON_.shared))
(define-fun .def_1646 () Bool (= call__DRAGON_.flby2 call__DRAGON_.exclusive))
(define-fun .def_1641 () Bool (<= 2 call__DRAGON_.exclusive))
(define-fun .def_1643 () Bool (not .def_1641))
(define-fun .def_1644 () Bool (or call__DRAGON_.ite .def_1643))
(define-fun .def_1640 () Bool (not call__DRAGON_.ite))
(define-fun .def_1642 () Bool (or .def_1640 .def_1641))
(define-fun .def_1645 () Bool (and .def_1642 .def_1644))
(define-fun .def_1647 () Bool (and .def_1645 .def_1646))
(define-fun .def_1635 () Bool (= call__DRAGON_.ite42 call__DRAGON_.ite43))
(define-fun .def_1636 () Bool (or param_e04 .def_1635))
(define-fun .def_1632 () Bool (= call__DRAGON_.ite43 call__DRAGON_.ite34))
(define-fun .def_1633 () Bool (or .def_1628 .def_1632))
(define-fun .def_1627 () Bool (= call__DRAGON_.ite23 call__DRAGON_.ite30))
(define-fun .def_1629 () Bool (or .def_1627 .def_1628))
(define-fun .def_1624 () Bool (= call__DRAGON_.ite29 call__DRAGON_.ite30))
(define-fun .def_1626 () Bool (or .def_1624 param_e04))
(define-fun .def_1630 () Bool (and .def_1626 .def_1629))
(define-fun .def_1634 () Bool (and .def_1630 .def_1633))
(define-fun .def_1637 () Bool (and .def_1634 .def_1636))
(define-fun .def_1620 () Bool (= call__DRAGON_.ite44 call__DRAGON_.ite43))
(define-fun .def_1621 () Bool (or param_e03 .def_1620))
(define-fun .def_1616 () Bool (= call__DRAGON_.ite44 call__DRAGON_.ite33))
(define-fun .def_1617 () Bool (or .def_1612 .def_1616))
(define-fun .def_1611 () Bool (= call__DRAGON_.ite9 call__DRAGON_.ite4))
(define-fun .def_1613 () Bool (or .def_1611 .def_1612))
(define-fun .def_1607 () Bool (= call__DRAGON_.ite8 call__DRAGON_.ite9))
(define-fun .def_1609 () Bool (or .def_1607 param_e03))
(define-fun .def_1614 () Bool (and .def_1609 .def_1613))
(define-fun .def_1618 () Bool (and .def_1614 .def_1617))
(define-fun .def_1622 () Bool (and .def_1618 .def_1621))
(define-fun .def_1603 () Bool (= call__DRAGON_.ite31 call__DRAGON_.ite30))
(define-fun .def_1604 () Bool (or param_e02 .def_1603))
(define-fun .def_1599 () Bool (= call__DRAGON_.ite22 call__DRAGON_.ite31))
(define-fun .def_1600 () Bool (or .def_1572 .def_1599))
(define-fun .def_1594 () Bool (= call__DRAGON_.ite20 call__DRAGON_.ite21))
(define-fun .def_1595 () Bool (or param_e02 .def_1594))
(define-fun .def_1591 () Bool (= call__DRAGON_.ite12 call__DRAGON_.ite21))
(define-fun .def_1592 () Bool (or .def_1572 .def_1591))
(define-fun .def_1586 () Bool (= call__DRAGON_.ite10 call__DRAGON_.ite9))
(define-fun .def_1587 () Bool (or param_e02 .def_1586))
(define-fun .def_1582 () Bool (= call__DRAGON_.ite3 call__DRAGON_.ite10))
(define-fun .def_1583 () Bool (or .def_1572 .def_1582))
(define-fun .def_1579 () Bool (= call__DRAGON_.ite59 call__DRAGON_.ite60))
(define-fun .def_1580 () Bool (or param_e02 .def_1579))
(define-fun .def_1576 () Bool (= call__DRAGON_.ite60 call__DRAGON_.ite47))
(define-fun .def_1577 () Bool (or .def_1572 .def_1576))
(define-fun .def_1571 () Bool (= call__DRAGON_.ite32 call__DRAGON_.ite45))
(define-fun .def_1573 () Bool (or .def_1571 .def_1572))
(define-fun .def_1568 () Bool (= call__DRAGON_.ite45 call__DRAGON_.ite44))
(define-fun .def_1570 () Bool (or .def_1568 param_e02))
(define-fun .def_1574 () Bool (and .def_1570 .def_1573))
(define-fun .def_1578 () Bool (and .def_1574 .def_1577))
(define-fun .def_1581 () Bool (and .def_1578 .def_1580))
(define-fun .def_1584 () Bool (and .def_1581 .def_1583))
(define-fun .def_1588 () Bool (and .def_1584 .def_1587))
(define-fun .def_1593 () Bool (and .def_1588 .def_1592))
(define-fun .def_1596 () Bool (and .def_1593 .def_1595))
(define-fun .def_1601 () Bool (and .def_1596 .def_1600))
(define-fun .def_1605 () Bool (and .def_1601 .def_1604))
(define-fun .def_1562 () Bool (= call__DRAGON_.ite11 call__DRAGON_.ite10))
(define-fun .def_1563 () Bool (or param_e01 .def_1562))
(define-fun .def_1558 () Bool (= call__DRAGON_.ite2 call__DRAGON_.ite11))
(define-fun .def_1559 () Bool (or .def_1553 .def_1558))
(define-fun .def_1552 () Bool (= call__DRAGON_.ite61 call__DRAGON_.ite46))
(define-fun .def_1554 () Bool (or .def_1552 .def_1553))
(define-fun .def_1548 () Bool (= call__DRAGON_.ite61 call__DRAGON_.ite60))
(define-fun .def_1550 () Bool (or .def_1548 param_e01))
(define-fun .def_1555 () Bool (and .def_1550 .def_1554))
(define-fun .def_1560 () Bool (and .def_1555 .def_1559))
(define-fun .def_1564 () Bool (and .def_1560 .def_1563))
(define-fun .def_1542 () Bool (= call__DRAGON_.ite55 call__DRAGON_.ite52))
(define-fun .def_1543 () Bool (or .def_1315 .def_1542))
(define-fun .def_1539 () Bool (= call__DRAGON_.ite54 call__DRAGON_.ite55))
(define-fun .def_1540 () Bool (or param_e11 .def_1539))
(define-fun .def_1544 () Bool (and .def_1540 .def_1543))
(define-fun .def_1535 () Bool (= call__DRAGON_.ite56 call__DRAGON_.ite51))
(define-fun .def_1536 () Bool (or .def_1306 .def_1535))
(define-fun .def_1532 () Bool (= call__DRAGON_.ite56 call__DRAGON_.ite55))
(define-fun .def_1533 () Bool (or param_e10 .def_1532))
(define-fun .def_1537 () Bool (and .def_1533 .def_1536))
(define-fun .def_1527 () Bool (= call__DRAGON_.ite57 call__DRAGON_.ite50))
(define-fun .def_1528 () Bool (or .def_1300 .def_1527))
(define-fun .def_1524 () Bool (= call__DRAGON_.ite57 call__DRAGON_.ite56))
(define-fun .def_1525 () Bool (or param_e09 .def_1524))
(define-fun .def_1529 () Bool (and .def_1525 .def_1528))
(define-fun .def_1521 () Bool (= env call_Sofar.Sofar))
(define-fun .def_1518 () Bool (= erreur call__DRAGON_.erreur))
(define-fun .def_1514 () Bool (= invalid call__DRAGON_.invalid))
(define-fun .def_1510 () Bool (= dirty call__DRAGON_.dirty))
(define-fun .def_1506 () Bool (= shared_dirty call__DRAGON_.shared_dirty))
(define-fun .def_1502 () Bool (= shared call__DRAGON_.shared))
(define-fun .def_1498 () Bool (= exclusive call__DRAGON_.exclusive))
(define-fun .def_1492 () Bool (not env))
(define-fun .def_1493 () Bool (or flby .def_1492))
(define-fun .def_1494 () Bool (= _OK_ .def_1493))
(define-fun .def_1486 () Bool (= call__DRAGON_.ite39 call__DRAGON_.ite40))
(define-fun .def_1487 () Bool (or param_e08 .def_1486))
(define-fun .def_1483 () Bool (= call__DRAGON_.ite37 call__DRAGON_.ite40))
(define-fun .def_1484 () Bool (or .def_1460 .def_1483))
(define-fun .def_1480 () Bool (= call__DRAGON_.ite27 call__DRAGON_.ite28))
(define-fun .def_1481 () Bool (or param_e08 .def_1480))
(define-fun .def_1477 () Bool (= call__DRAGON_.ite25 call__DRAGON_.ite28))
(define-fun .def_1478 () Bool (or .def_1460 .def_1477))
(define-fun .def_1474 () Bool (= call__DRAGON_.ite17 call__DRAGON_.ite18))
(define-fun .def_1475 () Bool (or param_e08 .def_1474))
(define-fun .def_1471 () Bool (= call__DRAGON_.ite18 call__DRAGON_.ite15))
(define-fun .def_1472 () Bool (or .def_1460 .def_1471))
(define-fun .def_1467 () Bool (= call__DRAGON_.ite7 call__DRAGON_.ite8))
(define-fun .def_1468 () Bool (or param_e08 .def_1467))
(define-fun .def_1464 () Bool (= call__DRAGON_.ite5 call__DRAGON_.ite8))
(define-fun .def_1465 () Bool (or .def_1460 .def_1464))
(define-fun .def_1459 () Bool (= call__DRAGON_.ite58 call__DRAGON_.ite49))
(define-fun .def_1461 () Bool (or .def_1459 .def_1460))
(define-fun .def_1455 () Bool (= call__DRAGON_.ite58 call__DRAGON_.ite57))
(define-fun .def_1457 () Bool (or .def_1455 param_e08))
(define-fun .def_1462 () Bool (and .def_1457 .def_1461))
(define-fun .def_1466 () Bool (and .def_1462 .def_1465))
(define-fun .def_1469 () Bool (and .def_1466 .def_1468))
(define-fun .def_1473 () Bool (and .def_1469 .def_1472))
(define-fun .def_1476 () Bool (and .def_1473 .def_1475))
(define-fun .def_1479 () Bool (and .def_1476 .def_1478))
(define-fun .def_1482 () Bool (and .def_1479 .def_1481))
(define-fun .def_1485 () Bool (and .def_1482 .def_1484))
(define-fun .def_1488 () Bool (and .def_1485 .def_1487))
(define-fun .def_1450 () Bool (= call__DRAGON_.ite41 call__DRAGON_.ite40))
(define-fun .def_1451 () Bool (or param_e07 .def_1450))
(define-fun .def_1446 () Bool (= call__DRAGON_.ite41 call__DRAGON_.ite36))
(define-fun .def_1447 () Bool (or .def_1442 .def_1446))
(define-fun .def_1441 () Bool (= call__DRAGON_.ite59 call__DRAGON_.ite48))
(define-fun .def_1443 () Bool (or .def_1441 .def_1442))
(define-fun .def_1437 () Bool (= call__DRAGON_.ite58 call__DRAGON_.ite59))
(define-fun .def_1439 () Bool (or .def_1437 param_e07))
(define-fun .def_1444 () Bool (and .def_1439 .def_1443))
(define-fun .def_1448 () Bool (and .def_1444 .def_1447))
(define-fun .def_1452 () Bool (and .def_1448 .def_1451))
(define-fun .def_1431 () Bool (= call__DRAGON_.ite42 call__DRAGON_.ite41))
(define-fun .def_1432 () Bool (or param_e05 .def_1431))
(define-fun .def_1427 () Bool (= call__DRAGON_.ite35 call__DRAGON_.ite42))
(define-fun .def_1428 () Bool (or .def_1422 .def_1427))
(define-fun .def_1421 () Bool (= call__DRAGON_.ite13 call__DRAGON_.ite20))
(define-fun .def_1423 () Bool (or .def_1421 .def_1422))
(define-fun .def_1418 () Bool (= call__DRAGON_.ite19 call__DRAGON_.ite20))
(define-fun .def_1420 () Bool (or .def_1418 param_e05))
(define-fun .def_1424 () Bool (and .def_1420 .def_1423))
(define-fun .def_1429 () Bool (and .def_1424 .def_1428))
(define-fun .def_1433 () Bool (and .def_1429 .def_1432))
(define-fun .def_1414 () Bool (= call__DRAGON_.ite29 call__DRAGON_.ite28))
(define-fun .def_1415 () Bool (or param_e06 .def_1414))
(define-fun .def_1410 () Bool (= call__DRAGON_.ite24 call__DRAGON_.ite29))
(define-fun .def_1411 () Bool (or .def_1406 .def_1410))
(define-fun .def_1405 () Bool (= call__DRAGON_.ite19 call__DRAGON_.ite14))
(define-fun .def_1407 () Bool (or .def_1405 .def_1406))
(define-fun .def_1401 () Bool (= call__DRAGON_.ite19 call__DRAGON_.ite18))
(define-fun .def_1403 () Bool (or .def_1401 param_e06))
(define-fun .def_1408 () Bool (and .def_1403 .def_1407))
(define-fun .def_1412 () Bool (and .def_1408 .def_1411))
(define-fun .def_1416 () Bool (and .def_1412 .def_1415))
(define-fun .def_1434 () Bool (and .def_1416 .def_1433))
(define-fun .def_1453 () Bool (and .def_1434 .def_1452))
(define-fun .def_1489 () Bool (and .def_1453 .def_1488))
(define-fun .def_1495 () Bool (and .def_1489 .def_1494))
(define-fun .def_1499 () Bool (and .def_1495 .def_1498))
(define-fun .def_1503 () Bool (and .def_1499 .def_1502))
(define-fun .def_1507 () Bool (and .def_1503 .def_1506))
(define-fun .def_1511 () Bool (and .def_1507 .def_1510))
(define-fun .def_1515 () Bool (and .def_1511 .def_1514))
(define-fun .def_1519 () Bool (and .def_1515 .def_1518))
(define-fun .def_1522 () Bool (and .def_1519 .def_1521))
(define-fun .def_1530 () Bool (and .def_1522 .def_1529))
(define-fun .def_1538 () Bool (and .def_1530 .def_1537))
(define-fun .def_1545 () Bool (and .def_1538 .def_1544))
(define-fun .def_1565 () Bool (and .def_1545 .def_1564))
(define-fun .def_1606 () Bool (and .def_1565 .def_1605))
(define-fun .def_1623 () Bool (and .def_1606 .def_1622))
(define-fun .def_1638 () Bool (and .def_1623 .def_1637))
(define-fun .def_1648 () Bool (and .def_1638 .def_1647))
(define-fun .def_1650 () Bool (and .def_1648 .def_1649))
(define-fun .def_1652 () Bool (and .def_1650 .def_1651))
(define-fun .def_1654 () Bool (and .def_1652 .def_1653))
(define-fun .def_1656 () Bool (and .def_1654 .def_1655))
(define-fun .def_1658 () Bool (and .def_1656 .def_1657))
(define-fun .def_1660 () Bool (and .def_1658 .def_1659))
(define-fun .def_1772 () Bool (and .def_1660 .def_1771))
(define-fun .def_1774 () Bool (and .def_1772 .def_1773))
(define-fun .def_1392 () Bool (<= param_init_invalid 0))
(define-fun .def_1393 () Bool (not .def_1392))
(define-fun .def_1395 () Bool (and .def_1393 call_excludes12.excludes))
(define-fun .def_1397 () Bool (= .def_1395 call_Sofar.flby))
(define-fun .def_1390 () Bool (= call__DRAGON_.flby4 0))
(define-fun .def_1387 () Bool (= call__DRAGON_.flby3 0))
(define-fun .def_1384 () Bool (= call__DRAGON_.flby2 0))
(define-fun .def_1381 () Bool (= param_init_invalid call__DRAGON_.flby))
(define-fun .def_1375 () Bool (= call__DRAGON_.ite37 0))
(define-fun .def_1368 () Bool (not call__DRAGON_.g08))
(define-fun .def_1376 () Bool (or .def_1368 .def_1375))
(define-fun .def_1371 () Bool (= call__DRAGON_.ite5 0))
(define-fun .def_1372 () Bool (or .def_1368 .def_1371))
(define-fun .def_1366 () Bool (= call__DRAGON_.ite25 1))
(define-fun .def_1369 () Bool (or .def_1366 .def_1368))
(define-fun .def_1373 () Bool (and .def_1369 .def_1372))
(define-fun .def_1377 () Bool (and .def_1373 .def_1376))
(define-fun .def_1362 () Bool (= call__DRAGON_.ite24 1))
(define-fun .def_1360 () Bool (not call__DRAGON_.g06))
(define-fun .def_1363 () Bool (or .def_1360 .def_1362))
(define-fun .def_1356 () Bool (= call__DRAGON_.ite13 0))
(define-fun .def_1354 () Bool (not call__DRAGON_.g05))
(define-fun .def_1357 () Bool (or .def_1354 .def_1356))
(define-fun .def_1350 () Bool (= call__DRAGON_.ite23 0))
(define-fun .def_1348 () Bool (not call__DRAGON_.g04))
(define-fun .def_1351 () Bool (or .def_1348 .def_1350))
(define-fun .def_1343 () Bool (= call__DRAGON_.ite3 0))
(define-fun .def_1340 () Bool (not call__DRAGON_.g02))
(define-fun .def_1344 () Bool (or .def_1340 .def_1343))
(define-fun .def_1338 () Bool (= call__DRAGON_.ite32 0))
(define-fun .def_1341 () Bool (or .def_1338 .def_1340))
(define-fun .def_1345 () Bool (and .def_1341 .def_1344))
(define-fun .def_1335 () Bool (= call__DRAGON_.flby6 call__DRAGON_.mem_init))
(define-fun .def_1331 () Bool (= call__DRAGON_.flby5 0))
(define-fun .def_1326 () Bool (= call__DRAGON_.ite53 call__DRAGON_.ite54))
(define-fun .def_1327 () Bool (or .def_1322 .def_1326))
(define-fun .def_1320 () Bool (= call__DRAGON_.ite6 call__DRAGON_.ite7))
(define-fun .def_1323 () Bool (or .def_1320 .def_1322))
(define-fun .def_1328 () Bool (and .def_1323 .def_1327))
(define-fun .def_1313 () Bool (= call__DRAGON_.ite26 call__DRAGON_.ite27))
(define-fun .def_1316 () Bool (or .def_1313 .def_1315))
(define-fun .def_1304 () Bool (= call__DRAGON_.ite16 call__DRAGON_.ite17))
(define-fun .def_1307 () Bool (or .def_1304 .def_1306))
(define-fun .def_1298 () Bool (= call__DRAGON_.ite38 call__DRAGON_.ite39))
(define-fun .def_1301 () Bool (or .def_1298 .def_1300))
(define-fun .def_1308 () Bool (and .def_1301 .def_1307))
(define-fun .def_1310 () Bool (and .def_1308 flby))
(define-fun .def_1317 () Bool (and .def_1310 .def_1316))
(define-fun .def_1329 () Bool (and .def_1317 .def_1328))
(define-fun .def_1332 () Bool (and .def_1329 .def_1331))
(define-fun .def_1336 () Bool (and .def_1332 .def_1335))
(define-fun .def_1346 () Bool (and .def_1336 .def_1345))
(define-fun .def_1352 () Bool (and .def_1346 .def_1351))
(define-fun .def_1358 () Bool (and .def_1352 .def_1357))
(define-fun .def_1364 () Bool (and .def_1358 .def_1363))
(define-fun .def_1378 () Bool (and .def_1364 .def_1377))
(define-fun .def_1382 () Bool (and .def_1378 .def_1381))
(define-fun .def_1385 () Bool (and .def_1382 .def_1384))
(define-fun .def_1388 () Bool (and .def_1385 .def_1387))
(define-fun .def_1391 () Bool (and .def_1388 .def_1390))
(define-fun .def_1398 () Bool (and .def_1391 .def_1397))
(define-fun .def_1775 () Bool (and .def_1398 .def_1774))
(assert .def_1775)
